SCIP version 5.0.0 [precision: 8 byte] [memory: block] [mode: optimized] [LP solver: NONE] [GitHash: 3bbd232]
Copyright (C) 2002-2017 Konrad-Zuse-Zentrum fuer Informationstechnik Berlin (ZIB)

External codes: 
  Readline EditLine w  GNU library for command line editing (gnu.org/s/readline)
  CppAD 20160000.1     Algorithmic Differentiation of C++ algorithms developed by B. Bell (www.coin-or.org/CppAD)
  ZLIB 1.2.5           General purpose compression library by J. Gailly and M. Adler (zlib.net)
  GMP 6.1.2            GNU Multiple Precision Arithmetic Library developed by T. Granlund (gmplib.org)

user parameter file <scip.set> not found - using default parameters

read problem <../../Split_data/output/breast/1/3_sample_breast.logreg>
============

File name	:	../../Split_data/output/breast/1/3_sample_breast.logreg
Problem name 	:	3_sample_breast
Number of data	:	155
Number of var	:	33
The given data has linear independence

[dim=1] time: 0.003567
[dim=2] time: 0.007805
[dim=3] time: 0.012274
[dim=4] time: 0.016303
[dim=5] time: 0.020163
[dim=6] time: 0.023876
[dim=7] time: 0.027717
[dim=8] time: 0.031176
[dim=9] time: 0.034541
[dim=10] time: 0.037475
[dim=11] time: 0.040667
[dim=12] time: 0.043397
[dim=13] time: 0.046141
[dim=14] time: 0.048989
[dim=15] time: 0.051583
[dim=16] Time of forward = 0.0543sec.
AIC: 128.191
k: 15

[dim=33] time: 0.016543
[dim=32] time: 0.02865
[dim=31] time: 0.042069
[dim=30] time: 0.051322
[dim=29] time: 0.0636
[dim=28] time: 0.071218
[dim=27] time: 0.0809
[dim=26] time: 0.088147
[dim=25] time: 0.095279
[dim=24] time: 0.102918
[dim=23] Time of backward = 0.108227sec.
AIC: 115.409
k: 24
